3287
2469
1152
2021
1746
1489
1278
2575
1246
1914
1235
2404
1929
3616
3345
1903
1171
2402
1402
1749
793
3575
451
434
780
1803
3182
3429
1848
1627
992
365
1143
2650
1225
2446
2631
571
1891
1615
1023
1436
2901
3153
1962
3074
2300
1405
1599
659
761
1426
967
2565
2176
3159
2196
352
2908
3039
1844
1976
2027
3447
3425
1680
1750
1885
922
503
1442
2281
1044
1164
1356
367
3184
2499
824
2638
2761
312
2896
690
2600
3220
584
2143
1593
2713

118471
74282
12106
45745
43410
49550
16084
82670
41032
52490

2740
1718
280
1058
1004
1146
372
1912
949
1214

3717.9

143
90
15
55
53
60
20
100
50
63
31
100
49
147
132
81
46
109
58
66
14
146
13
4
17
55
132
148
89
57
4
12
56
126
46
104
90
15
54
37
26
22
121
110
49
148
70
66
75
2
30
62
7
112
104
150
84
5
119
144
49
54
94
129
149
44
63
93
30
11
46
82
4
33
24
8
149
85
5
128
95
6
95
22
115
142
14
68
51
118
